<?xml version = "1.0" encoding="UTF-8" standalone="yes"?>
<CPLEXSolution version="1.2">
 <header
   problemName="mknap3_cut_n6"
   objectiveValue="3369.3617021276204"
   solutionTypeValue="1"
   solutionTypeString="basic"
   solutionStatusValue="1"
   solutionStatusString="optimal"
   solutionMethodString="dual"
   primalFeasible="1"
   dualFeasible="1"
   simplexIterations="5"
   writeLevel="1"/>
 <quality
   epRHS="9.9999999999999995e-07"
   epOpt="9.9999999999999995e-07"
   maxPrimalInfeas="0"
   maxDualInfeas="0"
   maxPrimalResidual="7.815970093361102e-14"
   maxDualResidual="1.1368683772161603e-13"
   maxX="1"
   maxPi="2710.6382978723436"
   maxSlack="682.12765957447141"
   maxRedCost="4156.7021276595724"
   kappa="14.587040499604317"/>
 <linearConstraints>
  <constraint name="c0" index="0" status="BS" slack="531.17021276595813" dual="-0"/>
  <constraint name="c1" index="1" status="BS" slack="682.12765957447141" dual="-0"/>
  <constraint name="c2" index="2" status="BS" slack="192.14893617021306" dual="-0"/>
  <constraint name="c3" index="3" status="BS" slack="334.17021276595813" dual="-0"/>
  <constraint name="c4" index="4" status="BS" slack="382.36170212766018" dual="-0"/>
  <constraint name="c5" index="5" status="BS" slack="417.36170212766018" dual="-0"/>
  <constraint name="c6" index="6" status="BS" slack="138.78723404255305" dual="-0"/>
  <constraint name="c7" index="7" status="BS" slack="236.36170212765958" dual="-0"/>
  <constraint name="c8" index="8" status="BS" slack="263.5106382978733" dual="-0"/>
  <constraint name="c9" index="9" status="BS" slack="273.5106382978733" dual="-0"/>
  <constraint name="cut_1" index="10" status="BS" slack="0.085106382978744122" dual="-0"/>
  <constraint name="cut_2" index="11" status="LL" slack="0" dual="2710.6382978723436"/>
  <constraint name="cut_3" index="12" status="LL" slack="0" dual="51.595744680860889"/>
  <constraint name="cut_4" index="13" status="BS" slack="0.28723404255316787" dual="-0"/>
  <constraint name="cut_5" index="14" status="BS" slack="0.14893617021277089" dual="-0"/>
  <constraint name="cut_6" index="15" status="LL" slack="0" dual="2308.5106382978629"/>
 </linearConstraints>
 <variables>
  <variable name="x0" index="0" status="LL" value="0" reducedCost="-196.17021276595653"/>
  <variable name="x1" index="1" status="LL" value="0" reducedCost="-2965.3191489361816"/>
  <variable name="x2" index="2" status="LL" value="0" reducedCost="-406.17021276596068"/>
  <variable name="x3" index="3" status="LL" value="0" reducedCost="-620.74468085105775"/>
  <variable name="x4" index="4" status="UL" value="1" reducedCost="112.23404255319087"/>
  <variable name="x5" index="5" status="LL" value="0" reducedCost="-2566.4893617021371"/>
  <variable name="x6" index="6" status="LL" value="0" reducedCost="-4156.7021276595724"/>
  <variable name="x7" index="7" status="LL" value="0" reducedCost="-1054.4680851063881"/>
  <variable name="x8" index="8" status="LL" value="0" reducedCost="-832.97872340426329"/>
  <variable name="x9" index="9" status="UL" value="1" reducedCost="580"/>
  <variable name="x10" index="10" status="BS" value="0.39361702127659942" reducedCost="0"/>
  <variable name="x11" index="11" status="LL" value="0" reducedCost="-2155.3191489361629"/>
  <variable name="x12" index="12" status="LL" value="0" reducedCost="-1797.340425531909"/>
  <variable name="x13" index="13" status="UL" value="1" reducedCost="1300"/>
  <variable name="x14" index="14" status="LL" value="0" reducedCost="-1524.9999999999932"/>
  <variable name="x15" index="15" status="LL" value="0" reducedCost="-1580.0000000000009"/>
  <variable name="x16" index="16" status="LL" value="0" reducedCost="-22.127659574470954"/>
  <variable name="x17" index="17" status="LL" value="0" reducedCost="-1934.3617021276598"/>
  <variable name="x18" index="18" status="LL" value="0" reducedCost="-1433.4042553191462"/>
  <variable name="x19" index="19" status="LL" value="0" reducedCost="-1080.851063829781"/>
  <variable name="x20" index="20" status="BS" value="0.28723404255319257" reducedCost="0"/>
  <variable name="x21" index="21" status="LL" value="0" reducedCost="-715.42553191488219"/>
  <variable name="x22" index="22" status="BS" value="0.14893617021271971" reducedCost="0"/>
  <variable name="x23" index="23" status="LL" value="0" reducedCost="-1520.7446808510642"/>
  <variable name="x24" index="24" status="LL" value="0" reducedCost="-1065.5319148936183"/>
  <variable name="x25" index="25" status="LL" value="0" reducedCost="-1074.787234042559"/>
  <variable name="x26" index="26" status="LL" value="0" reducedCost="-1119.5744680851124"/>
  <variable name="x27" index="27" status="LL" value="0" reducedCost="-663.4042553191548"/>
 </variables>
 <objectiveValues>
  <objective index="0" name="" value="3369.3617021276209"/>
 </objectiveValues>
</CPLEXSolution>
